c Result of efficient AIG-to-CNF conversion using package CNF
p cnf 740 2594
2 -716 -719 0
-2 716 0
-2 719 0
3 -629 -630 0
-3 629 0
-3 630 0
4 -564 -697 0
-4 564 0
-4 697 0
5 -626 728 0
-5 626 0
-5 -728 0
6 -574 727 0
-6 574 0
-6 -727 0
7 -699 -717 0
-7 699 0
-7 717 0
8 -628 -9 0
-8 628 0
-8 9 0
9 -574 -575 0
-9 574 0
-9 575 0
10 -596 726 -9 0
10 -597 -726 -9 0
-10 9 0
-10 596 726 0
-10 597 -726 0
11 -598 726 -9 0
11 -576 -726 -9 0
-11 9 0
-11 598 726 0
-11 576 -726 0
12 -595 -9 0
-12 595 0
-12 9 0
13 -629 14 0
-13 629 0
-13 -14 0
14 571 726 -9 0
14 572 -726 -9 0
-14 9 0
-14 -572 -726 0
-14 -571 726 0
15 -629 16 0
-15 629 0
-15 -16 0
16 573 726 -9 0
16 593 -726 -9 0
-16 9 0
-16 -593 -726 0
-16 -573 726 0
17 -629 18 0
-17 629 0
-17 -18 0
18 591 726 -9 0
18 570 -726 -9 0
-18 9 0
-18 -591 726 0
-18 -570 -726 0
19 -629 20 0
-19 629 0
-19 -20 0
20 594 726 -9 0
20 592 -726 -9 0
-20 9 0
-20 -594 726 0
-20 -592 -726 0
21 -22 23 -24 -32 0
-21 22 0
-21 32 0
-21 24 0
-21 -23 0
-22 664 693 0
-22 663 -693 0
22 -664 693 0
22 -663 -693 0
-23 665 676 0
-23 661 -676 0
23 -665 676 0
23 -661 -676 0
24 -25 26 29 0
-24 25 0
-24 -29 0
-24 -26 0
-25 664 678 0
-25 663 -678 0
25 -664 678 0
25 -663 -678 0
26 -709 27 0
26 27 -28 0
-26 -27 0
-26 709 28 0
-27 709 0
-27 664 682 0
-27 663 -682 0
27 -664 682 -709 0
27 -663 -682 -709 0
-28 665 682 0
-28 661 -682 0
28 -665 682 0
28 -661 -682 0
29 -708 30 0
29 30 -31 0
-29 -30 0
-29 708 31 0
-30 708 0
-30 664 680 0
-30 663 -680 0
30 -664 680 -708 0
30 -663 -680 -708 0
-31 665 680 0
-31 661 -680 0
31 -665 680 0
31 -661 -680 0
32 -33 -36 -37 -40 0
-32 40 0
-32 37 0
-32 33 0
-32 36 0
-33 -710 34 0
-33 34 35 0
33 -34 0
33 710 -35 0
-34 710 0
-34 -684 -732 0
-34 684 -731 0
34 684 -710 731 0
34 -684 -710 732 0
35 -684 -729 0
35 684 -730 0
-35 684 730 0
-35 -684 729 0
-36 -711 -732 0
-36 711 729 0
36 711 -729 0
36 -711 732 0
-37 -713 38 0
-37 38 39 0
37 -38 0
37 713 -39 0
-38 713 0
-38 -691 -732 0
-38 691 -731 0
38 691 -713 731 0
38 -691 -713 732 0
39 -691 -729 0
39 691 -730 0
-39 691 730 0
-39 -691 729 0
-40 -712 41 0
-40 41 42 0
40 -41 0
40 712 -42 0
-41 712 0
-41 -689 -732 0
-41 689 -731 0
41 689 -712 731 0
41 -689 -712 732 0
42 -689 -729 0
42 689 -730 0
-42 689 730 0
-42 -689 729 0
43 44 -47 -60 -63 0
-43 47 0
-43 60 0
-43 -44 0
-43 63 0
44 -705 45 0
44 45 -46 0
-44 -45 0
-44 705 46 0
-45 705 0
-45 -651 663 0
-45 651 664 0
45 -651 -663 -705 0
45 651 -664 -705 0
-46 651 665 0
-46 -651 661 0
46 -651 -661 0
46 651 -665 0
47 -48 -51 -54 -57 0
-47 57 0
-47 54 0
-47 48 0
-47 51 0
-48 -706 49 0
-48 49 50 0
48 -49 0
48 706 -50 0
-49 706 0
-49 -653 -732 0
-49 653 -731 0
49 653 -706 731 0
49 -653 -706 732 0
50 -653 -729 0
50 653 -730 0
-50 653 730 0
-50 -653 729 0
-51 -707 52 0
-51 52 53 0
51 -52 0
51 707 -53 0
-52 707 0
-52 -655 -732 0
-52 655 -731 0
52 655 -707 731 0
52 -655 -707 732 0
53 -655 -729 0
53 655 -730 0
-53 655 730 0
-53 -655 729 0
-54 -704 55 0
-54 55 56 0
54 -55 0
54 704 -56 0
-55 704 0
-55 -659 -732 0
-55 659 -731 0
55 659 -704 731 0
55 -659 -704 732 0
56 -659 -729 0
56 659 -730 0
-56 659 730 0
-56 -659 729 0
-57 -703 58 0
-57 58 59 0
57 -58 0
57 703 -59 0
-58 703 0
-58 -657 -732 0
-58 657 -731 0
58 657 -703 731 0
58 -657 -703 732 0
59 -657 -729 0
59 657 -730 0
-59 657 730 0
-59 -657 729 0
-60 -700 61 0
-60 61 62 0
60 -61 0
60 700 -62 0
-61 700 0
-61 -666 -732 0
-61 666 -731 0
61 666 -700 731 0
61 -666 -700 732 0
62 -666 -729 0
62 666 -730 0
-62 666 730 0
-62 -666 729 0
63 -64 -67 -70 0
-63 64 0
-63 70 0
-63 67 0
-64 -701 65 0
-64 65 66 0
64 -65 0
64 701 -66 0
-65 701 0
-65 -668 -732 0
-65 668 -731 0
65 668 -701 731 0
65 -668 -701 732 0
66 -668 -729 0
66 668 -730 0
-66 668 730 0
-66 -668 729 0
-67 -698 68 0
-67 68 69 0
67 -68 0
67 698 -69 0
-68 698 0
-68 -672 -732 0
-68 672 -731 0
68 672 -698 731 0
68 -672 -698 732 0
69 -672 -729 0
69 672 -730 0
-69 672 730 0
-69 -672 729 0
-70 -702 71 0
-70 71 72 0
70 -71 0
70 702 -72 0
-71 702 0
-71 -670 -732 0
-71 670 -731 0
71 670 -702 731 0
71 -670 -702 732 0
72 -670 -729 0
72 670 -730 0
-72 670 730 0
-72 -670 729 0
73 -74 -84 0
-73 74 0
-73 84 0
74 -75 -77 0
-74 75 0
-74 77 0
-75 705 76 0
-75 -705 -76 0
75 -705 76 0
75 705 -76 0
-76 651 687 0
-76 652 -687 0
76 -652 -687 0
76 -651 687 0
77 -78 -80 -82 0
-77 78 0
-77 82 0
-77 80 0
-78 706 79 0
-78 -706 -79 0
78 -706 79 0
78 706 -79 0
-79 653 687 0
-79 654 -687 0
79 -654 -687 0
79 -653 687 0
-80 703 81 0
-80 -703 -81 0
80 -703 81 0
80 703 -81 0
-81 657 687 0
-81 658 -687 0
81 -658 -687 0
81 -657 687 0
-82 707 83 0
-82 -707 -83 0
82 -707 83 0
82 707 -83 0
-83 655 687 0
-83 656 -687 0
83 -656 -687 0
83 -655 687 0
84 -85 -87 -89 -91 0
-84 91 0
-84 89 0
-84 85 0
-84 87 0
-85 704 86 0
-85 -704 -86 0
85 -704 86 0
85 704 -86 0
-86 659 687 0
-86 660 -687 0
86 -660 -687 0
86 -659 687 0
-87 700 88 0
-87 -700 -88 0
87 -700 88 0
87 700 -88 0
-88 666 687 0
-88 667 -687 0
88 -667 -687 0
88 -666 687 0
-89 701 90 0
-89 -701 -90 0
89 -701 90 0
89 701 -90 0
-90 668 687 0
-90 669 -687 0
90 -669 -687 0
90 -668 687 0
91 -92 -94 0
-91 92 0
-91 94 0
-92 698 93 0
-92 -698 -93 0
92 -698 93 0
92 698 -93 0
-93 672 687 0
-93 673 -687 0
93 -673 -687 0
93 -672 687 0
-94 702 95 0
-94 -702 -95 0
94 -702 95 0
94 702 -95 0
-95 670 687 0
-95 671 -687 0
95 -671 -687 0
95 -670 687 0
96 -97 -104 0
-96 97 0
-96 104 0
97 98 -99 101 -102 0
-97 -101 0
-97 102 0
-97 -98 0
-97 99 0
-98 676 686 0
-98 677 -686 0
98 -677 -686 0
98 -676 686 0
-99 708 100 0
-99 -708 -100 0
99 -708 100 0
99 708 -100 0
-100 680 686 0
-100 681 -686 0
100 -681 -686 0
100 -680 686 0
-101 678 686 0
-101 679 -686 0
101 -679 -686 0
101 -678 686 0
-102 709 103 0
-102 -709 -103 0
102 -709 103 0
102 709 -103 0
-103 682 686 0
-103 683 -686 0
103 -683 -686 0
103 -682 686 0
104 -105 -107 -109 111 0
-104 -111 0
-104 109 0
-104 105 0
-104 107 0
-105 713 106 0
-105 -713 -106 0
105 -713 106 0
105 713 -106 0
-106 -686 692 0
-106 686 691 0
106 686 -691 0
106 -686 -692 0
-107 710 108 0
-107 -710 -108 0
107 -710 108 0
107 710 -108 0
-108 684 686 0
-108 685 -686 0
108 -685 -686 0
108 -684 686 0
-109 712 110 0
-109 -712 -110 0
109 -712 110 0
109 712 -110 0
-110 -686 690 0
-110 686 689 0
110 686 -689 0
110 -686 -690 0
-111 112 114 0
111 -112 0
111 -114 0
112 711 -113 0
112 -711 113 0
-112 -711 -113 0
-112 711 113 0
113 -686 688 0
-113 686 0
-113 -688 0
-114 -686 694 0
-114 686 693 0
114 686 -693 0
114 -686 -694 0
115 -116 -118 0
-115 116 0
-115 118 0
116 98 -117 0
-116 -98 0
-116 117 0
117 -99 101 -102 0
-117 99 0
-117 -101 0
-117 102 0
118 -107 -109 112 -119 0
-118 119 0
-118 -112 0
-118 107 0
-118 109 0
119 -105 114 0
-119 105 0
-119 -114 0
120 -121 -122 0
-120 121 0
-120 122 0
121 -75 -78 -80 -82 0
-121 82 0
-121 80 0
-121 75 0
-121 78 0
122 -85 -89 -94 -123 0
-122 123 0
-122 94 0
-122 85 0
-122 89 0
123 -87 -92 0
-123 87 0
-123 92 0
124 125 -128 0
124 -125 128 0
-124 -125 -128 0
-124 125 128 0
-125 126 127 0
-125 -126 -127 0
125 -126 127 0
125 126 -127 0
-126 -680 -682 0
-126 680 682 0
126 680 -682 0
126 -680 682 0
-127 -676 -678 0
-127 676 678 0
127 676 -678 0
127 -676 678 0
128 -684 -129 -130 0
128 -684 129 130 0
128 684 129 -130 0
128 684 -129 130 0
-128 -684 -129 130 0
-128 -684 129 -130 0
-128 684 129 130 0
-128 684 -129 -130 0
-129 -693 -695 0
-129 693 695 0
129 693 -695 0
129 -693 695 0
-130 -689 -691 0
-130 689 691 0
130 689 -691 0
130 -689 691 0
-131 132 135 0
-131 -132 -135 0
131 -132 135 0
131 132 -135 0
-132 133 134 0
-132 -133 -134 0
132 -133 134 0
132 133 -134 0
-133 -655 -657 0
-133 655 657 0
133 655 -657 0
133 -655 657 0
-134 -651 -653 0
-134 651 653 0
134 651 -653 0
134 -651 653 0
-135 136 -137 -138 0
-135 136 137 138 0
-135 -136 137 -138 0
-135 -136 -137 138 0
135 136 -137 138 0
135 136 137 -138 0
135 -136 137 138 0
135 -136 -137 -138 0
-136 -659 -666 0
-136 659 666 0
136 659 -666 0
136 -659 666 0
-137 -672 -674 0
-137 672 674 0
137 672 -674 0
137 -672 674 0
-138 -668 -670 0
-138 668 670 0
138 668 -670 0
138 -668 670 0
-139 74 140 0
-139 140 147 0
139 -140 0
139 -74 -147 0
-140 141 143 0
-140 142 143 0
-140 78 143 0
140 -143 0
140 -78 -141 -142 0
141 -703 -81 0
-141 703 0
-141 81 0
142 -75 -82 0
-142 75 0
-142 82 0
-143 144 145 0
-143 78 145 0
-143 75 145 0
143 -145 0
143 -75 -78 -144 0
144 -707 -83 0
-144 707 0
-144 83 0
-145 76 146 0
-145 705 146 0
-145 705 76 0
145 -705 -146 0
145 -705 -76 0
145 -76 -146 0
146 -706 -79 0
-146 706 0
-146 79 0
-147 87 152 0
-147 148 150 152 0
147 -152 0
147 -87 -148 0
147 -87 -150 0
148 -85 -89 -94 -149 0
-148 149 0
-148 94 0
-148 85 0
-148 89 0
149 -698 -93 0
-149 698 0
-149 93 0
150 -85 -89 -151 0
-150 151 0
-150 89 0
-150 85 0
151 -702 -95 0
-151 702 0
-151 95 0
-152 153 154 0
-152 87 154 0
-152 85 154 0
152 -154 0
152 -85 -87 -153 0
153 -701 -90 0
-153 701 0
-153 90 0
-154 86 155 0
-154 704 155 0
-154 704 86 0
154 -704 -155 0
154 -704 -86 0
154 -86 -155 0
155 -700 -88 0
-155 700 0
-155 88 0
-156 97 157 0
-156 157 161 0
156 -157 0
156 -97 -161 0
-157 98 101 158 160 0
157 -101 0
157 -160 0
157 -98 0
157 -158 0
158 98 -99 -159 0
-158 -98 0
-158 99 0
-158 159 0
159 -709 -103 0
-159 709 0
-159 103 0
160 -708 -100 0
-160 708 0
-160 100 0
-161 -112 165 0
-161 162 163 165 0
161 -165 0
161 112 -162 0
161 112 -163 0
162 -105 -107 -109 -114 0
-162 114 0
-162 109 0
-162 105 0
-162 107 0
163 -107 -109 -164 0
-163 164 0
-163 109 0
-163 107 0
164 -713 -106 0
-164 713 0
-164 106 0
-165 166 167 0
-165 -112 167 0
-165 107 167 0
165 -167 0
165 -107 112 -166 0
166 -712 -110 0
-166 712 0
-166 110 0
-167 108 168 0
-167 710 168 0
-167 710 108 0
167 -710 -168 0
167 -710 -108 0
167 -108 -168 0
168 -711 113 0
-168 711 0
-168 -113 0
-169 121 140 0
-169 140 147 0
169 -140 0
169 -121 -147 0
-170 116 157 0
-170 157 161 0
170 -157 0
170 -116 -161 0
171 623 -172 0
171 -739 -172 0
171 740 -172 0
-171 172 0
-171 -623 739 -740 0
172 -740 0
172 -739 -173 0
172 739 -22 0
-172 -739 740 173 0
-172 739 740 22 0
173 -584 114 0
173 584 -114 0
-173 584 114 0
-173 -584 -114 0
174 621 -175 0
174 -739 -175 0
174 740 -175 0
-174 175 0
-174 -621 739 -740 0
175 -740 0
175 -739 176 0
175 739 -37 0
-175 -739 740 -176 0
-175 739 740 37 0
-176 105 177 0
-176 -105 -177 0
176 -105 177 0
176 105 -177 0
-177 584 114 0
177 -584 0
177 -114 0
178 611 -179 0
178 -739 -179 0
178 740 -179 0
-178 179 0
-178 -611 739 -740 0
179 -740 0
179 -739 180 0
179 739 -67 0
-179 -739 740 -180 0
-179 739 740 67 0
-180 565 92 0
-180 -565 -92 0
180 -565 92 0
180 565 -92 0
181 -98 -183 184 0
181 98 -182 183 0
181 -98 182 183 0
181 98 -183 -184 0
-181 -98 -183 -184 0
-181 98 182 183 0
-181 98 -183 184 0
-181 -98 -182 183 0
-182 99 101 160 0
-182 101 159 160 0
182 -101 0
182 -160 0
182 -99 -159 0
-183 104 161 0
-183 584 161 0
183 -161 0
183 -584 -104 0
-184 117 182 0
184 -117 0
184 -182 0
185 735 -186 0
185 585 -186 0
185 736 -186 0
-185 186 0
-185 -585 -735 -736 0
186 735 -187 0
186 566 -187 0
186 -736 -187 0
-186 187 0
-186 -566 -735 736 0
187 -735 0
187 -736 -178 0
187 736 -171 0
-187 735 -736 178 0
-187 735 736 171 0
188 582 -189 0
188 -739 -189 0
188 740 -189 0
-188 189 0
-188 -582 739 -740 0
189 -740 0
189 -739 190 0
189 739 -33 0
-189 -739 740 -190 0
-189 739 740 33 0
-190 107 191 0
-190 -107 -191 0
190 -107 191 0
190 107 -191 0
-191 -112 194 0
-191 192 194 0
191 -194 0
191 112 -192 0
192 -105 -109 -193 0
-192 193 0
-192 109 0
-192 105 0
193 -584 114 0
-193 584 0
-193 -114 0
-194 -112 197 0
-194 195 196 197 0
194 -197 0
194 112 -195 0
194 112 -196 0
195 -105 -109 -114 0
-195 105 0
-195 114 0
-195 109 0
196 -109 -164 0
-196 109 0
-196 164 0
-197 -112 168 0
-197 166 168 0
197 -168 0
197 112 -166 0
198 622 -199 0
198 -739 -199 0
198 740 -199 0
-198 199 0
-198 -622 739 -740 0
199 -740 0
199 -739 -200 0
199 739 -36 0
-199 -739 740 200 0
-199 739 740 36 0
200 -112 201 0
200 112 -201 0
-200 112 201 0
-200 -112 -201 0
-201 192 202 0
201 -192 0
201 -202 0
-202 166 195 196 0
202 -166 0
202 -196 0
202 -195 0
203 613 -204 0
203 -739 -204 0
203 740 -204 0
-203 204 0
-203 -613 739 -740 0
204 -740 0
204 -739 205 0
204 739 -40 0
-204 -739 740 -205 0
-204 739 740 40 0
-205 109 206 0
-205 -109 -206 0
205 -109 206 0
205 109 -206 0
-206 105 164 0
-206 584 114 164 0
206 -164 0
206 -584 -105 0
206 -105 -114 0
207 737 -208 0
207 585 -208 0
207 738 -208 0
-207 208 0
-207 -585 -737 -738 0
208 566 -209 0
208 -737 -209 0
208 738 -209 0
-208 209 0
-208 -566 737 -738 0
209 -738 0
209 -737 -178 0
209 737 -171 0
-209 -737 738 178 0
-209 737 738 171 0
210 616 -211 0
210 -739 -211 0
210 740 -211 0
-210 211 0
-210 -616 739 -740 0
211 -740 0
211 -739 212 0
211 739 -54 0
-211 -739 740 -212 0
-211 739 740 54 0
-212 85 213 0
-212 -85 -213 0
212 -85 213 0
212 85 -213 0
-213 87 216 0
-213 214 216 0
213 -216 0
213 -87 -214 0
214 -89 -94 -215 0
-214 215 0
-214 94 0
-214 89 0
215 -565 -92 0
-215 565 0
-215 92 0
-216 87 219 0
-216 217 218 219 0
216 -219 0
216 -87 -217 0
216 -87 -218 0
217 -89 -94 -149 0
-217 149 0
-217 94 0
-217 89 0
218 -89 -151 0
-218 89 0
-218 151 0
-219 87 155 0
-219 153 155 0
219 -155 0
219 -87 -153 0
220 620 -221 0
220 -739 -221 0
220 740 -221 0
-220 221 0
-220 -620 739 -740 0
221 -740 0
221 -739 222 0
221 739 -60 0
-221 -739 740 -222 0
-221 739 740 60 0
-222 87 223 0
-222 -87 -223 0
222 -87 223 0
222 87 -223 0
-223 214 224 0
223 -214 0
223 -224 0
-224 89 153 217 0
-224 151 153 217 0
224 -217 0
224 -153 0
224 -89 -151 0
225 619 -226 0
225 -739 -226 0
225 740 -226 0
-225 226 0
-225 -619 739 -740 0
226 -740 0
226 -739 227 0
226 739 -64 0
-226 -739 740 -227 0
-226 739 740 64 0
-227 89 228 0
-227 -89 -228 0
227 -89 228 0
227 89 -228 0
-228 94 229 0
-228 215 229 0
228 -229 0
228 -94 -215 0
-229 94 151 0
-229 149 151 0
229 -151 0
229 -94 -149 0
230 618 -231 0
230 -739 -231 0
230 740 -231 0
-230 231 0
-230 -618 739 -740 0
231 -740 0
231 -739 232 0
231 739 -70 0
-231 -739 740 -232 0
-231 739 740 70 0
-232 94 233 0
-232 -94 -233 0
232 -94 233 0
232 94 -233 0
-233 149 215 0
233 -149 0
233 -215 0
234 235 -238 0
234 -235 238 0
-234 -235 -238 0
-234 235 238 0
-235 236 237 0
-235 -236 -237 0
235 -236 237 0
235 236 -237 0
-236 100 103 0
-236 -100 -103 0
236 -100 103 0
236 100 -103 0
-237 98 101 0
-237 -98 -101 0
237 -98 101 0
237 98 -101 0
238 -239 -240 -241 0
238 -239 240 241 0
238 239 240 -241 0
238 239 -240 241 0
-238 -239 -240 241 0
-238 -239 240 -241 0
-238 239 240 241 0
-238 239 -240 -241 0
239 108 -113 0
239 -108 113 0
-239 -108 -113 0
-239 108 113 0
-240 106 110 0
-240 -106 -110 0
240 -106 110 0
240 106 -110 0
-241 114 242 0
-241 -114 -242 0
241 -114 242 0
241 114 -242 0
-242 -686 696 0
-242 686 695 0
242 686 -695 0
242 -686 -696 0
-243 244 247 0
-243 -244 -247 0
243 -244 247 0
243 244 -247 0
-244 245 246 0
-244 -245 -246 0
244 -245 246 0
244 245 -246 0
-245 93 95 0
-245 -93 -95 0
245 -93 95 0
245 93 -95 0
-246 88 90 0
-246 -88 -90 0
246 -88 90 0
246 88 -90 0
-247 248 -250 -251 0
-247 248 250 251 0
-247 -248 250 -251 0
-247 -248 -250 251 0
247 248 -250 251 0
247 248 250 -251 0
247 -248 250 251 0
247 -248 -250 -251 0
-248 76 249 0
-248 -76 -249 0
248 -76 249 0
248 76 -249 0
-249 674 687 0
-249 675 -687 0
249 -675 -687 0
249 -674 687 0
-250 81 86 0
-250 -81 -86 0
250 -81 86 0
250 81 -86 0
-251 79 83 0
-251 -79 -83 0
251 -79 83 0
251 79 -83 0
-252 253 258 261 263 0
252 -263 0
252 -253 0
252 -261 0
252 -258 0
-253 -75 -254 -257 0
-253 75 -254 257 0
-253 -75 254 -255 0
-253 75 254 255 0
253 -75 254 255 0
253 75 -254 -257 0
253 -75 -254 257 0
253 75 254 -255 0
-254 122 147 0
-254 565 147 0
254 -147 0
254 -565 -122 0
-255 78 146 0
-255 144 146 256 0
255 -146 0
255 -78 -256 0
255 -78 -144 0
256 -82 -141 0
-256 82 0
-256 141 0
-257 77 255 0
257 -77 0
257 -255 0
-258 -78 -254 -260 0
-258 78 -254 260 0
-258 -78 254 -259 0
-258 78 254 259 0
258 -78 254 259 0
258 78 -254 -260 0
258 -78 -254 260 0
258 78 254 -259 0
-259 82 144 0
-259 141 144 0
259 -144 0
259 -82 -141 0
-260 82 259 0
-260 80 259 0
260 -259 0
260 -80 -82 0
-261 82 -254 262 0
-261 82 141 254 0
-261 -82 -141 254 0
-261 -82 -254 -262 0
261 82 -254 -262 0
261 82 -141 254 0
261 -82 -254 262 0
261 -82 141 254 0
-262 703 81 0
262 -703 0
262 -81 0
-263 212 222 264 265 0
263 -265 0
263 -212 0
263 -264 0
263 -222 0
-264 80 254 0
-264 -80 -254 0
264 -80 254 0
264 80 -254 0
-265 180 227 232 0
265 -180 0
265 -227 0
265 -232 0
266 -181 -267 270 -272 0
-266 272 0
-266 181 0
-266 -270 0
-266 267 0
267 -101 183 268 0
267 101 -183 -269 0
267 -101 -183 269 0
267 101 183 -268 0
-267 -101 -183 -269 0
-267 101 -183 269 0
-267 -101 183 -268 0
-267 101 183 268 0
-268 99 160 0
-268 159 160 0
268 -160 0
268 -99 -159 0
-269 102 268 0
-269 99 268 0
269 -268 0
269 -99 -102 0
-270 99 -183 271 0
-270 99 159 183 0
-270 -99 -159 183 0
-270 -99 -183 -271 0
270 99 -183 -271 0
270 99 -159 183 0
270 -99 -183 271 0
270 -99 159 183 0
-271 709 103 0
271 -709 0
271 -103 0
272 190 273 -274 0
-272 -190 0
-272 -273 0
-272 274 0
-273 102 183 0
-273 -102 -183 0
273 -102 183 0
273 102 -183 0
274 -200 205 -275 0
-274 200 0
-274 -205 0
-274 275 0
275 -584 -105 114 0
275 584 -105 -114 0
-275 105 0
-275 -584 -114 0
-275 584 114 0
276 -627 278 0
276 -627 -722 -277 0
-276 627 0
-276 722 -278 0
-276 277 -278 0
277 -644 -721 0
-277 644 0
-277 721 0
278 643 -279 0
278 -721 -279 0
278 722 -279 0
-278 279 0
-278 -643 721 -722 0
279 -722 0
279 -721 -178 0
279 721 -171 0
-279 -721 722 178 0
-279 721 722 171 0
280 -627 282 0
280 -627 -724 -281 0
-280 627 0
-280 724 -282 0
-280 281 -282 0
281 -644 -723 0
-281 644 0
-281 723 0
282 643 -283 0
282 -723 -283 0
282 724 -283 0
-282 283 0
-282 -643 723 -724 0
283 -724 0
283 -723 -178 0
283 723 -171 0
-283 -723 724 178 0
-283 723 724 171 0
284 735 -285 0
284 577 -285 0
284 736 -285 0
-284 285 0
-284 -577 -735 -736 0
285 735 -286 0
285 579 -286 0
285 -736 -286 0
-285 286 0
-285 -579 -735 736 0
286 -735 0
286 -736 -210 0
286 736 -188 0
-286 735 -736 210 0
-286 735 736 188 0
287 735 -288 0
287 569 -288 0
287 736 -288 0
-287 288 0
-287 -569 -735 -736 0
288 735 -289 0
288 590 -289 0
288 -736 -289 0
-288 289 0
-288 -590 -735 736 0
289 -735 0
289 -736 -220 0
289 736 -198 0
-289 735 -736 220 0
-289 735 736 198 0
290 735 -291 0
290 568 -291 0
290 736 -291 0
-290 291 0
-290 -568 -735 -736 0
291 735 -292 0
291 589 -292 0
291 -736 -292 0
-291 292 0
-291 -589 -735 736 0
292 -735 0
292 -736 -225 0
292 736 -203 0
-292 735 -736 225 0
-292 735 736 203 0
293 735 -294 0
293 588 -294 0
293 736 -294 0
-293 294 0
-293 -588 -735 -736 0
294 735 -295 0
294 587 -295 0
294 -736 -295 0
-294 295 0
-294 -587 -735 736 0
295 -735 0
295 -736 -230 0
295 736 -174 0
-295 735 -736 230 0
-295 735 736 174 0
296 737 -297 0
296 577 -297 0
296 738 -297 0
-296 297 0
-296 -577 -737 -738 0
297 579 -298 0
297 -737 -298 0
297 738 -298 0
-297 298 0
-297 -579 737 -738 0
298 -738 0
298 -737 -210 0
298 737 -188 0
-298 -737 738 210 0
-298 737 738 188 0
299 737 -300 0
299 569 -300 0
299 738 -300 0
-299 300 0
-299 -569 -737 -738 0
300 590 -301 0
300 -737 -301 0
300 738 -301 0
-300 301 0
-300 -590 737 -738 0
301 -738 0
301 -737 -220 0
301 737 -198 0
-301 -737 738 220 0
-301 737 738 198 0
302 737 -303 0
302 568 -303 0
302 738 -303 0
-302 303 0
-302 -568 -737 -738 0
303 589 -304 0
303 -737 -304 0
303 738 -304 0
-303 304 0
-303 -589 737 -738 0
304 -738 0
304 -737 -225 0
304 737 -203 0
-304 -737 738 225 0
-304 737 738 203 0
305 737 -306 0
305 588 -306 0
305 738 -306 0
-305 306 0
-305 -588 -737 -738 0
306 587 -307 0
306 -737 -307 0
306 738 -307 0
-306 307 0
-306 -587 737 -738 0
307 -738 0
307 -737 -230 0
307 737 -174 0
-307 -737 738 230 0
-307 737 738 174 0
308 -627 310 0
308 -627 -722 -309 0
-308 627 0
-308 722 -310 0
-308 309 -310 0
309 -639 -721 0
-309 639 0
-309 721 0
310 649 -311 0
310 -721 -311 0
310 722 -311 0
-310 311 0
-310 -649 721 -722 0
311 -722 0
311 -721 -210 0
311 721 -188 0
-311 -721 722 210 0
-311 721 722 188 0
312 -627 314 0
312 -627 -722 -313 0
-312 627 0
-312 722 -314 0
-312 313 -314 0
313 -635 -721 0
-313 635 0
-313 721 0
314 645 -315 0
314 -721 -315 0
314 722 -315 0
-314 315 0
-314 -645 721 -722 0
315 -722 0
315 -721 -230 0
315 721 -174 0
-315 -721 722 230 0
-315 721 722 174 0
316 -627 318 0
316 -627 -722 -317 0
-316 627 0
-316 722 -318 0
-316 317 -318 0
317 -633 -721 0
-317 633 0
-317 721 0
318 634 -319 0
318 -721 -319 0
318 722 -319 0
-318 319 0
-318 -634 721 -722 0
319 -722 0
319 -721 -225 0
319 721 -203 0
-319 -721 722 225 0
-319 721 722 203 0
320 -627 322 0
320 -627 -722 -321 0
-320 627 0
-320 722 -322 0
-320 321 -322 0
321 -631 -721 0
-321 631 0
-321 721 0
322 632 -323 0
322 -721 -323 0
322 722 -323 0
-322 323 0
-322 -632 721 -722 0
323 -722 0
323 -721 -220 0
323 721 -198 0
-323 -721 722 220 0
-323 721 722 198 0
324 -627 326 0
324 -627 -724 -325 0
-324 627 0
-324 724 -326 0
-324 325 -326 0
325 -639 -723 0
-325 639 0
-325 723 0
326 649 -327 0
326 -723 -327 0
326 724 -327 0
-326 327 0
-326 -649 723 -724 0
327 -724 0
327 -723 -210 0
327 723 -188 0
-327 -723 724 210 0
-327 723 724 188 0
328 -627 330 0
328 -627 -724 -329 0
-328 627 0
-328 724 -330 0
-328 329 -330 0
329 -635 -723 0
-329 635 0
-329 723 0
330 645 -331 0
330 -723 -331 0
330 724 -331 0
-330 331 0
-330 -645 723 -724 0
331 -724 0
331 -723 -230 0
331 723 -174 0
-331 -723 724 230 0
-331 723 724 174 0
332 -627 334 0
332 -627 -724 -333 0
-332 627 0
-332 724 -334 0
-332 333 -334 0
333 -633 -723 0
-333 633 0
-333 723 0
334 634 -335 0
334 -723 -335 0
334 724 -335 0
-334 335 0
-334 -634 723 -724 0
335 -724 0
335 -723 -225 0
335 723 -203 0
-335 -723 724 225 0
-335 723 724 203 0
336 -627 338 0
336 -627 -724 -337 0
-336 627 0
-336 724 -338 0
-336 337 -338 0
337 -631 -723 0
-337 631 0
-337 723 0
338 632 -339 0
338 -723 -339 0
338 724 -339 0
-338 339 0
-338 -632 723 -724 0
339 -724 0
339 -723 -220 0
339 723 -198 0
-339 -723 724 220 0
-339 723 724 198 0
340 625 -341 0
340 741 -341 0
-340 341 0
-340 -625 -741 0
-341 734 342 0
-341 733 342 0
-341 -181 342 0
341 -342 0
341 -733 -734 181 0
-342 733 343 0
-342 617 343 0
-342 -734 343 0
342 -343 0
342 -617 -733 734 0
-343 -733 0
-343 -734 -344 0
-343 734 23 0
343 733 -734 344 0
343 733 734 -23 0
344 -624 98 0
344 624 -98 0
-344 624 98 0
-344 -624 -98 0
-345 -181 -344 0
-345 181 344 0
345 181 -344 0
345 -181 344 0
-346 617 347 0
-346 -739 347 0
-346 740 347 0
346 -347 0
346 -617 739 -740 0
-347 -740 0
-347 -739 -181 0
-347 739 23 0
347 -739 740 181 0
347 739 740 -23 0
348 615 -349 0
348 -739 -349 0
348 740 -349 0
-348 349 0
-348 -615 739 -740 0
349 -740 0
349 -739 -267 0
349 739 -25 0
-349 -739 740 267 0
-349 739 740 25 0
-350 610 351 0
-350 -739 351 0
-350 740 351 0
350 -351 0
350 -610 739 -740 0
-351 -740 0
-351 -739 270 0
-351 739 29 0
351 -739 740 -270 0
351 739 740 -29 0
-352 606 353 0
-352 -739 353 0
-352 740 353 0
352 -353 0
352 -606 739 -740 0
-353 -740 0
-353 -739 273 0
-353 739 26 0
353 -739 740 -273 0
353 739 740 -26 0
354 -662 131 -355 -356 0
-354 356 0
-354 662 0
-354 355 0
-354 -131 0
355 -699 -716 -717 -718 0
-355 718 0
-355 699 0
-355 717 0
-355 716 0
356 -719 -124 -234 243 0
-356 -243 0
-356 719 0
-356 234 0
-356 124 0
-357 609 358 0
-357 -739 358 0
-357 740 358 0
357 -358 0
357 -609 739 -740 0
-358 -740 0
-358 -739 253 0
-358 739 44 0
358 -739 740 -253 0
358 739 740 -44 0
359 608 -360 0
359 -739 -360 0
359 740 -360 0
-359 360 0
-359 -608 739 -740 0
360 -740 0
360 -739 258 0
360 739 -48 0
-360 -739 740 -258 0
-360 739 740 48 0
361 583 -362 0
361 -739 -362 0
361 740 -362 0
-361 362 0
-361 -583 739 -740 0
362 -740 0
362 -739 261 0
362 739 -51 0
-362 -739 740 -261 0
-362 739 740 51 0
363 607 -364 0
363 -739 -364 0
363 740 -364 0
-363 364 0
-363 -607 739 -740 0
364 -740 0
364 -739 264 0
364 739 -57 0
-364 -739 740 -264 0
-364 739 740 57 0
-365 737 366 0
-365 604 366 0
-365 738 366 0
365 -366 0
365 -604 -737 -738 0
-366 605 367 0
-366 -737 367 0
-366 738 367 0
366 -367 0
366 -605 737 -738 0
-367 -738 0
-367 -737 357 0
-367 737 346 0
367 -737 738 -357 0
367 737 738 -346 0
-368 735 369 0
-368 604 369 0
-368 736 369 0
368 -369 0
368 -604 -735 -736 0
-369 735 370 0
-369 605 370 0
-369 -736 370 0
369 -370 0
369 -605 -735 736 0
-370 -735 0
-370 -736 357 0
-370 736 346 0
370 735 -736 -357 0
370 735 736 -346 0
371 735 -372 0
371 581 -372 0
371 736 -372 0
-371 372 0
-371 -581 -735 -736 0
372 735 -373 0
372 580 -373 0
372 -736 -373 0
-372 373 0
-372 -580 -735 736 0
373 -735 0
373 -736 -359 0
373 736 -348 0
-373 735 -736 359 0
-373 735 736 348 0
-374 735 375 0
-374 603 375 0
-374 736 375 0
374 -375 0
374 -603 -735 -736 0
-375 735 376 0
-375 602 376 0
-375 -736 376 0
375 -376 0
375 -602 -735 736 0
-376 -735 0
-376 -736 -361 0
-376 736 350 0
376 735 -736 361 0
376 735 736 -350 0
-377 735 378 0
-377 578 378 0
-377 736 378 0
377 -378 0
377 -578 -735 -736 0
-378 735 379 0
-378 599 379 0
-378 -736 379 0
378 -379 0
378 -599 -735 736 0
-379 -735 0
-379 -736 -363 0
-379 736 352 0
379 735 -736 363 0
379 735 736 -352 0
380 737 -381 0
380 581 -381 0
380 738 -381 0
-380 381 0
-380 -581 -737 -738 0
381 580 -382 0
381 -737 -382 0
381 738 -382 0
-381 382 0
-381 -580 737 -738 0
382 -738 0
382 -737 -359 0
382 737 -348 0
-382 -737 738 359 0
-382 737 738 348 0
-383 737 384 0
-383 603 384 0
-383 738 384 0
383 -384 0
383 -603 -737 -738 0
-384 602 385 0
-384 -737 385 0
-384 738 385 0
384 -385 0
384 -602 737 -738 0
-385 -738 0
-385 -737 -361 0
-385 737 350 0
385 -737 738 361 0
385 737 738 -350 0
-386 737 387 0
-386 578 387 0
-386 738 387 0
386 -387 0
386 -578 -737 -738 0
-387 599 388 0
-387 -737 388 0
-387 738 388 0
387 -388 0
387 -599 737 -738 0
-388 -738 0
-388 -737 -363 0
-388 737 352 0
388 -737 738 363 0
388 737 738 -352 0
389 -627 -391 0
389 -627 -722 -390 0
-389 627 0
-389 722 391 0
-389 390 391 0
390 -640 -721 0
-390 640 0
-390 721 0
-391 650 392 0
-391 -721 392 0
-391 722 392 0
391 -392 0
391 -650 721 -722 0
-392 -722 0
-392 -721 -363 0
-392 721 352 0
392 -721 722 363 0
392 721 722 -352 0
393 -627 -395 0
393 -627 -722 -394 0
-393 627 0
-393 722 395 0
-393 394 395 0
394 -638 -721 0
-394 638 0
-394 721 0
-395 648 396 0
-395 -721 396 0
-395 722 396 0
395 -396 0
395 -648 721 -722 0
-396 -722 0
-396 -721 -361 0
-396 721 350 0
396 -721 722 361 0
396 721 722 -350 0
397 -627 399 0
397 -627 -722 -398 0
-397 627 0
-397 722 -399 0
-397 398 -399 0
398 -637 -721 0
-398 637 0
-398 721 0
399 647 -400 0
399 -721 -400 0
399 722 -400 0
-399 400 0
-399 -647 721 -722 0
400 -722 0
400 -721 -359 0
400 721 -348 0
-400 -721 722 359 0
-400 721 722 348 0
401 -627 -403 0
401 -627 -722 -402 0
-401 627 0
-401 722 403 0
-401 402 403 0
402 -636 -721 0
-402 636 0
-402 721 0
-403 646 404 0
-403 -721 404 0
-403 722 404 0
403 -404 0
403 -646 721 -722 0
-404 -722 0
-404 -721 357 0
-404 721 346 0
404 -721 722 -357 0
404 721 722 -346 0
405 -627 -407 0
405 -627 -724 -406 0
-405 627 0
-405 724 407 0
-405 406 407 0
406 -640 -723 0
-406 640 0
-406 723 0
-407 650 408 0
-407 -723 408 0
-407 724 408 0
407 -408 0
407 -650 723 -724 0
-408 -724 0
-408 -723 -363 0
-408 723 352 0
408 -723 724 363 0
408 723 724 -352 0
409 -627 -411 0
409 -627 -724 -410 0
-409 627 0
-409 724 411 0
-409 410 411 0
410 -638 -723 0
-410 638 0
-410 723 0
-411 648 412 0
-411 -723 412 0
-411 724 412 0
411 -412 0
411 -648 723 -724 0
-412 -724 0
-412 -723 -361 0
-412 723 350 0
412 -723 724 361 0
412 723 724 -350 0
413 -627 415 0
413 -627 -724 -414 0
-413 627 0
-413 724 -415 0
-413 414 -415 0
414 -637 -723 0
-414 637 0
-414 723 0
415 647 -416 0
415 -723 -416 0
415 724 -416 0
-415 416 0
-415 -647 723 -724 0
416 -724 0
416 -723 -359 0
416 723 -348 0
-416 -723 724 359 0
-416 723 724 348 0
417 -627 -419 0
417 -627 -724 -418 0
-417 627 0
-417 724 419 0
-417 418 419 0
418 -636 -723 0
-418 636 0
-418 723 0
-419 646 420 0
-419 -723 420 0
-419 724 420 0
419 -420 0
419 -646 723 -724 0
-420 -724 0
-420 -723 357 0
-420 723 346 0
420 -723 724 -357 0
420 723 724 -346 0
-421 740 422 0
-421 614 739 422 0
421 -422 0
421 -739 -740 0
421 -614 -740 0
-422 -740 0
-422 -739 440 0
-422 739 423 0
422 -739 740 -440 0
422 739 740 -423 0
423 -424 427 0
423 424 -427 0
-423 424 427 0
-423 -424 -427 0
424 425 -426 0
424 -425 426 0
-424 -425 -426 0
-424 425 426 0
-425 -26 -29 0
-425 26 29 0
425 26 -29 0
425 -26 29 0
426 -23 25 0
426 23 -25 0
-426 23 25 0
-426 -23 -25 0
-427 22 -428 -433 0
-427 22 428 433 0
-427 -22 428 -433 0
-427 -22 -428 433 0
427 22 -428 433 0
427 22 428 -433 0
427 -22 428 433 0
427 -22 -428 -433 0
-428 -429 -430 0
-428 429 430 0
428 429 -430 0
428 -429 430 0
429 -661 711 0
429 663 -711 0
-429 -663 -711 0
-429 661 711 0
430 -710 431 0
430 431 -432 0
-430 -431 0
-430 710 432 0
-431 710 0
-431 664 684 0
-431 663 -684 0
431 -664 684 -710 0
431 -663 -684 -710 0
-432 665 684 0
-432 661 -684 0
432 -665 684 0
432 -661 -684 0
-433 -434 -437 0
-433 434 437 0
433 434 -437 0
433 -434 437 0
434 -713 435 0
434 435 -436 0
-434 -435 0
-434 713 436 0
-435 713 0
-435 664 691 0
-435 663 -691 0
435 -664 691 -713 0
435 -663 -691 -713 0
-436 665 691 0
-436 661 -691 0
436 -665 691 0
436 -661 -691 0
437 -712 438 0
437 438 -439 0
-437 -438 0
-437 712 439 0
-438 712 0
-438 664 689 0
-438 663 -689 0
438 -664 689 -712 0
438 -663 -689 -712 0
-439 665 689 0
-439 661 -689 0
439 -665 689 0
439 -661 -689 0
-440 441 460 0
-440 -441 -460 0
440 -441 460 0
440 441 -460 0
-441 725 -112 -442 0
-441 -725 112 450 0
-441 -725 -112 -450 0
-441 725 112 442 0
441 -725 -112 450 0
441 -725 112 -450 0
441 725 -112 442 0
441 725 112 -442 0
-442 109 443 0
-442 -109 -443 0
442 -109 443 0
442 109 -443 0
-443 107 444 0
-443 -107 -444 0
443 -107 444 0
443 107 -444 0
-444 105 445 0
-444 -105 -445 0
444 -105 445 0
444 105 -445 0
-445 -114 -446 0
-445 114 446 0
445 114 -446 0
445 -114 446 0
446 -194 447 0
446 194 -447 0
-446 194 447 0
-446 -194 -447 0
-447 -448 -449 0
-447 448 449 0
447 448 -449 0
447 -448 449 0
-448 105 164 0
-448 114 164 0
448 -164 0
448 -105 -114 0
449 -114 202 0
449 114 -202 0
-449 114 202 0
-449 -114 -202 0
450 109 -451 0
450 -109 451 0
-450 -109 -451 0
-450 109 451 0
451 107 -452 0
451 -107 452 0
-451 -107 -452 0
-451 107 452 0
452 105 -453 0
452 -105 453 0
-452 -105 -453 0
-452 105 453 0
453 -114 454 0
453 114 -454 0
-453 114 454 0
-453 -114 -454 0
-454 455 457 0
-454 -455 -457 0
454 -455 457 0
454 455 -457 0
-455 105 194 0
-455 194 456 0
-455 -112 194 0
455 -194 0
455 -105 112 -456 0
456 -109 114 0
-456 109 0
-456 -114 0
-457 458 459 0
-457 -458 -459 0
457 -458 459 0
457 458 -459 0
-458 713 106 0
458 -713 0
458 -106 0
-459 -114 202 0
-459 109 202 0
-459 105 202 0
459 -202 0
459 -105 -109 114 0
-460 725 468 0
-460 -461 468 0
-460 467 468 0
460 -468 0
460 -725 461 -467 0
461 -101 462 0
461 101 -462 0
-461 101 462 0
-461 -101 -462 0
-462 -98 -463 0
-462 98 463 0
462 98 -463 0
462 -98 463 0
463 99 -464 0
463 -99 464 0
-463 -99 -464 0
-463 99 464 0
464 102 -465 0
464 -102 465 0
-464 -102 -465 0
-464 102 465 0
465 184 -466 0
465 -184 466 0
-465 -184 -466 0
-465 184 466 0
466 -269 271 0
466 269 -271 0
-466 269 271 0
-466 -269 -271 0
-467 118 161 0
467 -118 0
467 -161 0
-468 -467 475 0
-468 725 475 0
-468 469 475 0
468 -475 0
468 -725 467 -469 0
-469 -101 -470 0
-469 101 470 0
469 101 -470 0
469 -101 470 0
470 -98 471 0
470 98 -471 0
-470 98 471 0
-470 -98 -471 0
-471 99 472 0
-471 -99 -472 0
471 -99 472 0
471 99 -472 0
-472 102 473 0
-472 -102 -473 0
472 -102 473 0
472 102 -473 0
-473 -182 -474 0
-473 182 474 0
473 182 -474 0
473 -182 474 0
474 -159 268 0
474 159 -268 0
-474 159 268 0
-474 -159 -268 0
-475 -725 0
-475 161 469 0
-475 -161 -461 0
475 725 161 -469 0
475 725 -161 461 0
-476 740 477 0
-476 612 739 477 0
476 -477 0
476 -739 -740 0
476 -612 -740 0
-477 -740 0
-477 -739 509 0
-477 739 478 0
477 -739 740 -509 0
477 739 740 -478 0
478 479 -491 0
478 -479 491 0
-478 -479 -491 0
-478 479 491 0
-479 480 487 0
-479 -480 -487 0
479 -480 487 0
479 480 -487 0
-480 -481 -484 0
-480 481 484 0
480 481 -484 0
480 -481 484 0
481 -703 482 0
481 482 -483 0
-481 -482 0
-481 703 483 0
-482 703 0
-482 -657 663 0
-482 657 664 0
482 -657 -663 -703 0
482 657 -664 -703 0
-483 657 665 0
-483 -657 661 0
483 -657 -661 0
483 657 -665 0
484 -707 485 0
484 485 -486 0
-484 -485 0
-484 707 486 0
-485 707 0
-485 -655 663 0
-485 655 664 0
485 -655 -663 -707 0
485 655 -664 -707 0
-486 655 665 0
-486 -655 661 0
486 -655 -661 0
486 655 -665 0
-487 -44 -488 0
-487 44 488 0
487 44 -488 0
487 -44 488 0
488 -706 489 0
488 489 -490 0
-488 -489 0
-488 706 490 0
-489 706 0
-489 -653 663 0
-489 653 664 0
489 -653 -663 -706 0
489 653 -664 -706 0
-490 653 665 0
-490 -653 661 0
490 -653 -661 0
490 653 -665 0
491 492 499 -502 0
491 492 -499 502 0
491 -492 -499 -502 0
491 -492 499 502 0
-491 492 499 502 0
-491 492 -499 -502 0
-491 -492 -499 502 0
-491 -492 499 -502 0
-492 -493 -496 0
-492 493 496 0
492 493 -496 0
492 -493 496 0
493 -700 494 0
493 494 -495 0
-493 -494 0
-493 700 495 0
-494 700 0
-494 664 666 0
-494 663 -666 0
494 -664 666 -700 0
494 -663 -666 -700 0
-495 665 666 0
-495 661 -666 0
495 -665 666 0
495 -661 -666 0
496 -704 497 0
496 497 -498 0
-496 -497 0
-496 704 498 0
-497 704 0
-497 -659 663 0
-497 659 664 0
497 -659 -663 -704 0
497 659 -664 -704 0
-498 659 665 0
-498 -659 661 0
498 -659 -661 0
498 659 -665 0
499 -698 500 0
499 500 -501 0
-499 -500 0
-499 698 501 0
-500 698 0
-500 664 672 0
-500 663 -672 0
500 -664 672 -698 0
500 -663 -672 -698 0
-501 665 672 0
-501 661 -672 0
501 -665 672 0
501 -661 -672 0
-502 -503 -506 0
-502 503 506 0
502 503 -506 0
502 -503 506 0
503 -702 504 0
503 504 -505 0
-503 -504 0
-503 702 505 0
-504 702 0
-504 664 670 0
-504 663 -670 0
504 -664 670 -702 0
504 -663 -670 -702 0
-505 665 670 0
-505 661 -670 0
505 -665 670 0
505 -661 -670 0
506 -701 507 0
506 507 -508 0
-506 -507 0
-506 701 508 0
-507 701 0
-507 664 668 0
-507 663 -668 0
507 -664 668 -701 0
507 -663 -668 -701 0
-508 665 668 0
-508 661 -668 0
508 -665 668 0
508 -661 -668 0
-509 510 530 0
-509 -510 -530 0
509 -510 530 0
509 510 -530 0
-510 720 87 511 0
-510 -720 -87 518 0
-510 -720 87 -518 0
-510 720 -87 -511 0
510 -720 87 518 0
510 -720 -87 -518 0
510 720 87 -511 0
510 720 -87 511 0
511 89 -512 0
511 -89 512 0
-511 -89 -512 0
-511 89 512 0
512 85 -513 0
512 -85 513 0
-512 -85 -513 0
-512 85 513 0
513 94 -514 0
513 -94 514 0
-513 -94 -514 0
-513 94 514 0
514 92 -515 0
514 -92 515 0
-514 -92 -515 0
-514 92 515 0
515 -216 516 0
515 216 -516 0
-515 216 516 0
-515 -216 -516 0
-516 -229 -517 0
-516 229 517 0
516 229 -517 0
516 -229 517 0
517 -149 224 0
517 149 -224 0
-517 149 224 0
-517 -149 -224 0
518 89 -519 0
518 -89 519 0
-518 -89 -519 0
-518 89 519 0
519 85 -520 0
519 -85 520 0
-519 -85 -520 0
-519 85 520 0
520 94 -521 0
520 -94 521 0
-520 -94 -521 0
-520 94 521 0
521 92 -522 0
521 -92 522 0
-521 -92 -522 0
-521 92 522 0
522 523 -525 0
522 -523 525 0
-522 -523 -525 0
-522 523 525 0
-523 87 216 0
-523 216 524 0
-523 94 216 0
523 -216 0
523 -87 -94 -524 0
524 -89 -92 0
-524 89 0
-524 92 0
525 526 -527 0
525 -526 527 0
-525 -526 -527 0
-525 526 527 0
-526 94 229 0
-526 92 229 0
526 -229 0
526 -92 -94 0
527 -528 529 0
527 528 -529 0
-527 528 529 0
-527 -528 -529 0
-528 89 224 0
-528 92 224 0
-528 94 224 0
528 -224 0
528 -89 -92 -94 0
-529 698 93 0
529 -698 0
529 -93 0
-530 720 538 0
-530 -531 538 0
-530 537 538 0
530 -538 0
530 -720 531 -537 0
531 78 -532 0
531 -78 532 0
-531 -78 -532 0
-531 78 532 0
532 75 -533 0
532 -75 533 0
-532 -75 -533 0
-532 75 533 0
533 82 -534 0
533 -82 534 0
-533 -82 -534 0
-533 82 534 0
534 80 -535 0
534 -80 535 0
-534 -80 -535 0
-534 80 535 0
535 257 -536 0
535 -257 536 0
-535 -257 -536 0
-535 257 536 0
536 -260 262 0
536 260 -262 0
-536 260 262 0
-536 -260 -262 0
-537 84 147 0
537 -84 0
537 -147 0
-538 -537 545 0
-538 720 545 0
-538 539 545 0
538 -545 0
538 -720 537 -539 0
-539 78 540 0
-539 -78 -540 0
539 -78 540 0
539 78 -540 0
-540 75 541 0
-540 -75 -541 0
540 -75 541 0
540 75 -541 0
-541 82 542 0
-541 -82 -542 0
541 -82 542 0
541 82 -542 0
-542 80 543 0
-542 -80 -543 0
542 -80 543 0
542 80 -543 0
-543 -255 -544 0
-543 255 544 0
543 255 -544 0
543 -255 544 0
544 -141 259 0
544 141 -259 0
-544 141 259 0
-544 -141 -259 0
-545 -720 0
-545 147 539 0
-545 -147 -531 0
545 720 147 -539 0
545 720 -147 531 0
546 735 -547 0
546 586 -547 0
546 736 -547 0
-546 547 0
-546 -586 -735 -736 0
547 735 -548 0
547 567 -548 0
547 -736 -548 0
-547 548 0
-547 -567 -735 736 0
548 -735 0
548 -736 -551 0
548 736 -549 0
-548 735 -736 551 0
-548 735 736 549 0
549 600 -740 0
549 740 -550 0
-549 -600 -740 0
-549 740 550 0
550 739 -423 0
550 -739 -440 0
-550 -739 440 0
-550 739 423 0
551 601 -740 0
551 740 -552 0
-551 -601 -740 0
-551 740 552 0
552 739 -478 0
552 -739 -509 0
-552 -739 509 0
-552 739 478 0
553 737 -554 0
553 586 -554 0
553 738 -554 0
-553 554 0
-553 -586 -737 -738 0
554 567 -555 0
554 -737 -555 0
554 738 -555 0
-554 555 0
-554 -567 737 -738 0
555 -738 0
555 -737 -551 0
555 737 -549 0
-555 -737 738 551 0
-555 737 738 549 0
556 -627 558 0
556 -627 -722 -557 0
-556 627 0
-556 722 -558 0
-556 557 -558 0
557 -642 -721 0
-557 642 0
-557 721 0
558 641 -559 0
558 -721 -559 0
558 722 -559 0
-558 559 0
-558 -641 721 -722 0
559 -722 0
559 -721 -551 0
559 721 -549 0
-559 -721 722 551 0
-559 721 722 549 0
560 -627 562 0
560 -627 -724 -561 0
-560 627 0
-560 724 -562 0
-560 561 -562 0
561 -642 -723 0
-561 642 0
-561 723 0
562 641 -563 0
562 -723 -563 0
562 724 -563 0
-562 563 0
-562 -641 723 -724 0
563 -724 0
563 -723 -551 0
563 723 -549 0
-563 -723 724 551 0
-563 723 724 549 0
-742 0
629 0
676 0
728 0
-714 0
-690 0
-694 0
2 0
-715 0
-714 0
-714 0
-688 0
-692 0
3 0
-662 0
-716 0
-719 0
-718 0
4 0
5 0
-6 0
-7 0
627 0
629 0
564 0
715 0
677 0
-715 0
-8 0
-9 0
564 0
564 0
564 0
564 0
677 0
-677 0
-10 0
-11 0
-11 0
-12 0
13 0
15 0
17 0
19 0
21 0
43 0
73 0
96 0
115 0
120 0
-124 0
131 0
139 0
156 0
169 0
170 0
171 0
174 0
178 0
181 0
-185 0
188 0
198 0
203 0
-207 0
210 0
220 0
225 0
230 0
-234 0
243 0
-252 0
266 0
276 0
280 0
-284 0
-287 0
-290 0
-293 0
-296 0
-299 0
-302 0
-305 0
308 0
312 0
316 0
320 0
324 0
328 0
332 0
336 0
340 0
345 0
-346 0
348 0
-350 0
-352 0
354 0
-357 0
359 0
361 0
363 0
365 0
368 0
-371 0
374 0
377 0
-380 0
383 0
386 0
389 0
393 0
397 0
401 0
405 0
409 0
413 0
417 0
421 0
476 0
-546 0
-553 0
-556 0
-560 0

